p cnf 10 50
7 -8 -10 0
-7 -1 -6 0
-8 7 -10 0
-4 -6 3 0
-7 2 8 0
5 6 8 0
7 8 -9 0
-10 4 5 0
9 -2 -8 0
9 1 5 0
1 -9 -2 0
5 10 2 0
2 -10 -3 0
-6 5 2 0
3 8 10 0
2 5 4 0
5 -10 2 0
-8 5 4 0
-1 6 2 0
-3 -4 10 0
-2 6 -10 0
-3 -8 6 0
5 3 9 0
4 -9 -8 0
3 -1 4 0
6 -7 -8 0
-4 3 8 0
-9 8 10 0
-7 -3 5 0
8 4 2 0
-2 5 -10 0
-2 -4 10 0
-2 4 -9 0
-3 4 -9 0
7 8 -1 0
8 -3 -6 0
6 9 -7 0
-3 -1 -6 0
-7 2 9 0
-9 10 -8 0
-4 -7 8 0
-6 -4 -5 0
9 -4 -8 0
-8 -5 3 0
7 -4 9 0
9 6 1 0
7 8 5 0
4 -8 5 0
-10 7 -9 0
-4 -6 -9 0
